p cnf 50 400
1 -50 -48 0
1 -50 -32 0
1 -50 -30 0
1 -50 -27 0
1 -50 -17 0
1 -50 21 0
1 -50 38 0
1 -50 48 0
1 -49 -35 0
1 -49 -33 0
1 -49 -28 0
1 -49 -26 0
1 -49 -25 0
1 -49 -22 0
1 -49 8 0
1 -49 17 0
1 -48 -42 0
1 -48 -24 0
1 -48 -19 0
1 -48 -14 0
1 -48 8 0
1 -48 25 0
1 -48 34 0
1 -47 -35 0
1 -47 -4 0
1 -47 14 0
1 -47 23 0
1 -47 26 0
1 -47 27 0
1 -47 41 0
1 -47 43 0
1 -46 -36 0
1 -46 -14 0
1 -46 -5 0
1 -46 6 0
1 -46 7 0
1 -46 10 0
1 -46 11 0
1 -46 44 0
1 -45 -43 0
1 -45 -31 0
1 -45 -22 0
1 -45 -10 0
1 -45 14 0
1 -45 28 0
1 -45 36 0
1 -45 46 0
1 -44 -41 0
1 -44 -11 0
1 -44 -6 0
1 -44 24 0
1 -44 35 0
1 -44 40 0
1 -44 42 0
1 -44 45 0
1 -43 -40 0
1 -43 -37 0
1 -43 18 0
1 -43 28 0
1 -43 35 0
1 -43 39 0
1 -43 44 0
1 -42 -41 0
1 -42 -37 0
1 -42 -21 0
1 -42 -6 0
1 -42 19 0
1 -42 26 0
1 -42 36 0
1 -41 -40 0
1 -41 -35 0
1 -41 -21 0
1 -41 -15 0
1 -41 -5 0
1 -41 13 0
1 -40 -32 0
1 -40 7 0
1 -40 13 0
1 -40 20 0
1 -40 28 0
1 -40 31 0
1 -39 -38 0
1 -39 -33 0
1 -39 -16 0
1 -39 -15 0
1 -39 6 0
1 -39 7 0
1 -39 26 0
1 -39 33 0
1 -38 -15 0
1 -38 8 0
1 -38 10 0
1 -38 12 0
1 -38 24 0
1 -38 27 0
1 -38 35 0
1 -37 -14 0
1 -37 -12 0
1 -37 8 0
1 -37 29 0
1 -37 35 0
1 -37 48 0
1 -36 -23 0
1 -36 -14 0
1 -36 15 0
1 -36 16 0
1 -36 32 0
1 -36 40 0
1 -36 45 0
1 -35 -34 0
1 -35 21 0
1 -35 24 0
1 -35 29 0
1 -35 42 0
1 -34 -29 0
1 -34 8 0
1 -34 19 0
1 -34 23 0
1 -34 35 0
1 -34 39 0
1 -34 40 0
1 -33 -12 0
1 -33 -9 0
1 -33 24 0
1 -33 32 0
1 -33 36 0
1 -33 41 0
1 -32 -7 0
1 -32 3 0
1 -32 22 0
1 -32 30 0
1 -32 36 0
1 -32 42 0
1 -31 -23 0
1 -31 -6 0
1 -31 5 0
1 -31 15 0
1 -31 18 0
1 -31 20 0
1 -31 23 0
1 -30 -13 0
1 -30 -9 0
1 -30 3 0
1 -30 33 0
1 -30 39 0
1 -30 46 0
1 -30 48 0
1 -29 -27 0
1 -29 4 0
1 -29 13 0
1 -29 34 0
1 -29 35 0
1 -29 41 0
1 -29 49 0
1 -28 -26 0
1 -28 -25 0
1 -28 -3 0
1 -28 1 0
1 -28 25 0
1 -28 41 0
1 -28 48 0
1 -27 -21 0
1 -27 -20 0
1 -27 -9 0
1 -27 -1 0
1 -27 5 0
1 -27 42 0
1 -26 -17 0
1 -26 -13 0
1 -26 -12 0
1 -26 -7 0
1 -26 -4 0
1 -26 37 0
1 -25 -20 0
1 -25 -14 0
1 -25 -12 0
1 -25 -2 0
1 -25 10 0
1 -25 29 0
1 -24 -18 0
1 -24 -13 0
1 -24 11 0
1 -24 19 0
1 -24 25 0
1 -24 43 0
1 -24 44 0
1 -23 -22 0
1 -23 -18 0
1 -23 10 0
1 -23 16 0
1 -23 31 0
1 -23 38 0
1 -22 -21 0
1 -22 17 0
1 -22 18 0
1 -22 27 0
1 -22 44 0
1 -21 -17 0
1 -21 24 0
1 -21 29 0
1 -21 42 0
1 -20 -10 0
1 -20 -8 0
1 -20 2 0
1 -20 5 0
1 -20 27 0
1 -20 49 0
1 -19 -18 0
1 -19 -8 0
1 -19 13 0
1 -19 21 0
1 -19 25 0
1 -19 45 0
1 -19 46 0
1 -18 -4 0
1 -18 4 0
1 -18 12 0
1 -18 15 0
1 -18 49 0
1 -17 -14 0
1 -17 -12 0
1 -17 -1 0
1 -17 12 0
1 -17 48 0
1 -16 -6 0
1 -16 5 0
1 -16 19 0
1 -16 28 0
1 -16 31 0
1 -16 41 0
1 -16 47 0
1 -15 -10 0
1 -15 -2 0
1 -15 1 0
1 -15 39 0
1 -15 46 0
1 -14 -10 0
1 -14 47 0
1 -13 -4 0
1 -13 7 0
1 -13 8 0
1 -13 9 0
1 -13 38 0
1 -12 13 0
1 -12 14 0
1 -12 26 0
1 -11 -9 0
1 -11 -6 0
1 -11 -1 0
1 -11 7 0
1 -11 14 0
1 -11 37 0
1 -11 49 0
1 -10 4 0
1 -10 11 0
1 -10 15 0
1 -10 33 0
1 -9 5 0
1 -9 26 0
1 -9 34 0
1 -9 47 0
1 -8 -5 0
1 -8 9 0
1 -8 12 0
1 -8 30 0
1 -8 33 0
1 -8 49 0
1 -7 2 0
1 -7 14 0
1 -7 30 0
1 -7 36 0
1 -7 40 0
1 -7 45 0
1 -6 -5 0
1 -6 25 0
1 -6 50 0
1 -5 -1 0
1 -5 9 0
1 -5 19 0
1 -5 32 0
1 -4 9 0
1 -4 18 0
1 -4 30 0
1 -4 35 0
1 -3 10 0
1 -3 14 0
1 -3 15 0
1 -3 31 0
1 -3 34 0
1 -3 41 0
1 -3 47 0
1 -2 1 0
1 -2 3 0
1 -2 8 0
1 -2 10 0
1 -2 20 0
1 -2 22 0
1 -1 25 0
1 -1 43 0
1 -1 45 0
1 -1 50 0
1 1 2 0
1 1 34 0
1 1 40 0
1 1 46 0
1 1 47 0
1 2 15 0
1 2 22 0
1 2 23 0
1 2 34 0
1 2 50 0
1 3 8 0
1 3 11 0
1 3 24 0
1 3 29 0
1 3 44 0
1 4 9 0
1 4 34 0
1 4 40 0
1 4 46 0
1 4 50 0
1 5 10 0
1 5 19 0
1 5 21 0
1 6 17 0
1 6 18 0
1 6 24 0
1 6 31 0
1 6 41 0
1 6 49 0
1 7 25 0
1 7 35 0
1 7 43 0
1 9 23 0
1 9 25 0
1 9 31 0
1 10 48 0
1 11 18 0
1 11 20 0
1 11 29 0
1 11 43 0
1 12 21 0
1 12 30 0
1 12 36 0
1 12 40 0
1 13 23 0
1 13 27 0
1 13 47 0
1 14 22 0
1 14 50 0
1 15 30 0
1 15 39 0
1 16 17 0
1 16 27 0
1 16 30 0
1 16 41 0
1 16 47 0
1 16 50 0
1 17 18 0
1 17 23 0
1 17 33 0
1 17 39 0
1 18 27 0
1 19 37 0
1 19 38 0
1 20 24 0
1 20 44 0
1 20 48 0
1 20 49 0
1 21 29 0
1 21 32 0
1 21 42 0
1 22 26 0
1 22 30 0
1 22 33 0
1 22 39 0
1 23 27 0
1 26 36 0
1 26 37 0
1 28 31 0
1 28 33 0
1 28 43 0
1 28 45 0
1 29 38 0
1 31 38 0
1 32 33 0
1 32 37 0
1 32 44 0
1 32 47 0
1 34 46 0
1 36 39 0
1 37 42 0
1 37 44 0
1 37 50 0
1 38 43 0
1 38 45 0
1 40 50 0
1 42 45 0
1 43 49 0
1 46 48 0
